; ./prepared/aeval/./multi-phase/s_split_01_000.smt2
(set-logic HORN)


(declare-fun |fail| ( ) Bool)
(declare-fun |inv| ( Int Int ) Bool)

(assert
  (forall ( (A Int) (B Int) ) 
    (=>
      (and
        (and (= B 5000) (= A 0))
      )
      (inv A B)
    )
  )
)
(assert
  (forall ( (A Int) (B Int) (C Int) (D Int) ) 
    (=>
      (and
        (inv A B)
        (and (= D (ite (>= A 5000) (+ 1 B) B)) (= C (+ 1 A)))
      )
      (inv C D)
    )
  )
)
(assert
  (forall ( (A Int) (B Int) ) 
    (=>
      (and
        (inv B A)
        (and (= B 10000) (not (= A B)))
      )
      fail
    )
  )
)
(assert
  (forall ( (CHC_COMP_UNUSED Bool) ) 
    (=>
      (and
        fail
        true
      )
      false
    )
  )
)

(check-sat)
(exit)
